qbf_easy_train/easy_3840_SAT.qdimacs
p cnf 16 29
a 2 11 6 0
e 1 3 4 5 7 8 9 10 12 13 14 15 16 0
3 -1 0
3 2 0
1 -2 -3 0
4 5 -6 0
-4 -5 -6 0
4 -5 6 0
-4 5 6 0
-8 1 0
-8 -7 0
-1 7 8 0
-10 -8 0
-10 9 0
8 -9 10 0
-13 -11 0
-13 12 0
11 -12 13 0
-14 -10 0
-14 -13 0
10 13 14 0
15 -6 0
15 -14 0
6 14 -15 0
16 -3 0
16 15 0
3 -15 -16 0
8 3 -1 4 -10 0
10 2 -15 0
10 12 -13 11 15 6 -4 0
16 0
