sat_easy_train/easy_3840_SAT.dimacs
p cnf 114 381
-5 -4 0
-5 3 0
4 -3 5 0
-3 -5 -6 0
3 5 -6 0
-3 5 6 0
3 -5 6 0
7 -2 0
7 -6 0
2 6 -7 0
-1 -7 -8 0
1 7 -8 0
-1 7 8 0
1 -7 8 0
9 10 -11 0
-9 -10 -11 0
9 -10 11 0
-9 10 11 0
8 -11 -12 0
-8 11 -12 0
8 11 12 0
-8 -11 12 0
13 2 0
13 -4 0
-2 4 -13 0
-15 -14 0
-15 2 0
14 -2 15 0
13 -15 -16 0
-13 15 -16 0
13 15 16 0
-13 -15 16 0
17 12 0
17 16 0
-12 -16 -17 0
-18 19 -20 0
18 -19 -20 0
-18 -19 20 0
18 19 20 0
21 11 0
21 -20 0
-11 20 -21 0
-22 -2 0
-22 5 0
2 -5 22 0
24 22 0
24 -23 0
-22 23 -24 0
25 -5 0
25 24 0
5 -24 -25 0
-21 25 -26 0
21 -25 -26 0
-21 -25 26 0
21 25 26 0
28 27 0
28 3 0
-27 -3 -28 0
-29 -2 0
-29 -28 0
2 28 29 0
30 5 0
30 29 0
-5 -29 -30 0
-31 26 0
-31 -30 0
-26 30 31 0
-34 -32 0
-34 33 0
32 -33 34 0
28 34 -35 0
-28 -34 -35 0
28 -34 35 0
-28 34 35 0
35 7 -36 0
-35 -7 -36 0
35 -7 36 0
-35 7 36 0
37 36 0
37 36 0
-36 -37 0
-38 31 0
-38 -37 0
-31 37 38 0
39 17 0
39 38 0
-17 -38 -39 0
-40 23 0
-40 13 0
-23 -13 40 0
-41 -40 0
-41 -1 0
40 1 41 0
-42 -11 0
-42 9 0
11 -9 42 0
-41 -42 -43 0
41 42 -43 0
-41 42 43 0
41 -42 43 0
39 43 -44 0
-39 -43 -44 0
39 -43 44 0
-39 43 44 0
45 20 0
45 2 0
-20 -2 -45 0
-46 7 0
-46 45 0
-7 -45 46 0
47 18 0
47 -27 0
-18 27 -47 0
-46 -47 -48 0
46 47 -48 0
-46 47 48 0
46 -47 48 0
49 -44 0
49 48 0
44 -48 -49 0
50 -18 0
50 14 0
18 -14 -50 0
-51 -14 0
-51 -19 0
14 19 51 0
53 -52 0
53 5 0
52 -5 -53 0
-54 -51 0
-54 53 0
51 -53 54 0
-55 -35 0
-55 10 0
35 -10 55 0
55 -3 -56 0
-55 3 -56 0
55 3 56 0
-55 -3 56 0
29 27 -57 0
-29 -27 -57 0
29 -27 57 0
-29 27 57 0
58 10 0
58 -57 0
-10 57 -58 0
56 58 -59 0
-56 -58 -59 0
56 -58 59 0
-56 58 59 0
-54 -59 -60 0
54 59 -60 0
-54 59 60 0
54 -59 60 0
61 -50 0
61 -60 0
50 60 -61 0
20 -22 -62 0
-20 22 -62 0
20 22 62 0
-20 -22 62 0
63 -62 0
63 -57 0
62 57 -63 0
63 55 -64 0
-63 -55 -64 0
63 -55 64 0
-63 55 64 0
-57 29 -65 0
57 -29 -65 0
-57 -29 65 0
57 29 65 0
-66 65 0
-66 -3 0
-65 3 66 0
67 -64 0
67 -66 0
64 66 -67 0
68 57 0
68 -7 0
-57 7 -68 0
-70 -7 0
-70 -23 0
7 23 70 0
-71 69 0
-71 70 0
-69 -70 71 0
72 68 0
72 -71 0
-68 71 -72 0
67 72 -73 0
-67 -72 -73 0
67 -72 73 0
-67 72 73 0
-74 23 0
-74 -28 0
-23 28 74 0
-75 -13 0
-75 13 0
76 24 0
76 75 0
-24 -75 -76 0
-74 76 -77 0
74 -76 -77 0
-74 -76 77 0
74 76 77 0
79 -34 0
79 13 0
34 -13 -79 0
-80 78 0
-80 -79 0
-78 79 80 0
-81 9 0
-81 76 0
-9 -76 81 0
-82 80 0
-82 -81 0
-80 81 82 0
5 69 -83 0
-5 -69 -83 0
5 -69 83 0
-5 69 83 0
-84 -82 0
-84 -83 0
82 83 84 0
85 77 0
85 84 0
-77 -84 -85 0
-86 -73 0
-86 -85 0
73 85 86 0
61 86 -87 0
-61 -86 -87 0
61 -86 87 0
-61 86 87 0
4 -20 -88 0
-4 20 -88 0
4 20 88 0
-4 -20 88 0
-15 -88 -89 0
15 88 -89 0
-15 88 89 0
15 -88 89 0
-56 -88 -90 0
56 88 -90 0
-56 88 90 0
56 -88 90 0
-91 89 0
-91 -90 0
-89 90 91 0
87 91 -92 0
-87 -91 -92 0
87 -91 92 0
-87 91 92 0
-74 65 -93 0
74 -65 -93 0
-74 -65 93 0
74 65 93 0
-22 -79 -94 0
22 79 -94 0
-22 79 94 0
22 -79 94 0
95 -93 0
95 94 0
93 -94 -95 0
75 70 -96 0
-75 -70 -96 0
75 -70 96 0
-75 70 96 0
-35 -53 -97 0
35 53 -97 0
-35 53 97 0
35 -53 97 0
-98 32 0
-98 -97 0
-32 97 98 0
99 96 0
99 98 0
-96 -98 -99 0
-100 -95 0
-100 99 0
95 -99 100 0
-101 -74 0
-101 -9 0
74 9 101 0
102 -100 0
102 -101 0
100 101 -102 0
-103 -3 0
-103 -32 0
3 32 103 0
104 103 0
104 -13 0
-103 13 -104 0
-20 52 -105 0
20 -52 -105 0
-20 -52 105 0
20 52 105 0
-104 105 -106 0
104 -105 -106 0
-104 -105 106 0
104 105 106 0
107 -18 0
107 -32 0
18 32 -107 0
108 -24 0
108 107 0
24 -107 -108 0
-109 -33 0
-109 -70 0
33 70 109 0
-108 -109 -110 0
108 109 -110 0
-108 109 110 0
108 -109 110 0
106 110 -111 0
-106 -110 -111 0
106 -110 111 0
-106 110 111 0
-112 102 0
-112 111 0
-102 -111 112 0
92 -112 -113 0
-92 112 -113 0
92 112 113 0
-92 -112 113 0
49 -113 -114 0
-49 113 -114 0
49 113 114 0
-49 -113 114 0
40 -95 -27 0
-38 105 -85 30 83 -29 0
-87 -108 81 0
73 39 114 50 -28 0
-8 63 62 0
85 69 0
37 -27 -44 0
109 90 79 0
-53 84 -9 20 -104 -32 0
-85 44 56 -57 0
64 -114 0
63 -99 0
73 23 -70 -48 -65 0
11 -89 -35 103 9 -55 0
-7 12 -77 0
-49 111 56 15 -47 6 0
27 -65 0
26 16 -58 87 -98 0
-12 -99 -59 -112 -87 0
39 24 -44 0
-17 9 0
-14 71 112 0
-82 -39 -86 0
-3 27 -80 21 -32 -112 0
-11 2 -71 0
100 -27 23 20 0
63 93 -106 26 0
-101 -107 0
-12 113 31 60 -49 0
57 -69 0
11 52 -108 -111 112 0
-29 -21 -10 -72 0
103 43 -106 114 -38 81 0
46 -23 -40 22 -60 65 0
1 -106 28 0
-37 -35 -47 0
55 -82 -26 30 4 0
80 12 0
-69 107 40 -61 -51 -10 0
80 94 -10 12 30 92 0
98 -104 -62 45 14 -71 0
-94 28 16 8 12 0
-19 56 -89 43 0
109 78 0
60 -83 104 -82 0
-75 -29 -90 -70 -73 0
23 64 -41 -98 0
61 -69 39 -68 98 0
-99 -19 0
-57 -58 -109 107 -73 42 0
114 0
